<number of tasks>
50

<cycle time>
1000

<order strength>
0.597


<task times>
1 205
2 185
3 281
4 155
5 22
6 237
7 114
8 91
9 61
10 155
11 52
12 153
13 95
14 34
15 64
16 88
17 213
18 165
19 240
20 278
21 240
22 105
23 36
24 107
25 161
26 233
27 115
28 46
29 250
30 127
31 91
32 277
33 153
34 58
35 143
36 134
37 209
38 216
39 141
40 132
41 87
42 153
43 82
44 189
45 180
46 115
47 322
48 229
49 91
50 108

<precedence relations>
1,14
1,26
1,27
1,28
2,8
3,5
3,6
4,5
4,6
4,7
4,8
4,9
4,10
5,11
5,12
6,11
6,14
7,11
7,13
8,11
8,20
8,23
9,11
9,23
10,15
10,16
10,26
10,28
11,15
11,16
11,18
12,16
12,19
12,24
12,32
13,15
13,22
13,31
14,17
14,20
14,33
15,24
15,27
16,33
16,38
16,47
17,32
18,21
18,22
19,23
19,35
19,40
19,44
20,46
20,47
21,24
21,25
21,26
21,27
21,28
22,26
22,47
23,25
23,26
24,29
24,30
25,30
25,41
26,48
27,29
27,32
28,29
28,30
28,31
29,33
29,35
29,36
30,42
31,47
31,48
32,34
32,38
33,37
33,43
33,44
34,41
35,39
35,42
35,45
35,46
36,37
36,38
36,40
37,45
38,49
40,45
41,47
41,48
42,47
44,46
45,48
46,48
46,50
47,49
47,50

<end>
